\* berth *\
Minimize
OBJ: 420 mid_for_y_0 + 516 mid_for_y_1 + 549 mid_for_y_10 + 450 mid_for_y_11
 + 529 mid_for_y_12 + 525 mid_for_y_13 + 440 mid_for_y_14 + 481 mid_for_y_15
 + 564 mid_for_y_16 + 440 mid_for_y_17 + 534 mid_for_y_18 + 408 mid_for_y_19
 + 546 mid_for_y_2 + 401 mid_for_y_20 + 495 mid_for_y_21 + 469 mid_for_y_22
 + 555 mid_for_y_23 + 541 mid_for_y_24 + 514 mid_for_y_25 + 449 mid_for_y_26
 + 510 mid_for_y_27 + 410 mid_for_y_28 + 406 mid_for_y_29 + 563 mid_for_y_3
 + 499 mid_for_y_30 + 488 mid_for_y_31 + 571 mid_for_y_32 + 459 mid_for_y_33
 + 411 mid_for_y_34 + 409 mid_for_y_35 + 501 mid_for_y_36 + 444 mid_for_y_37
 + 425 mid_for_y_38 + 539 mid_for_y_39 + 493 mid_for_y_4 + 501 mid_for_y_40
 + 430 mid_for_y_41 + 544 mid_for_y_42 + 511 mid_for_y_43 + 444 mid_for_y_44
 + 560 mid_for_y_45 + 516 mid_for_y_46 + 591 mid_for_y_47 + 498 mid_for_y_48
 + 526 mid_for_y_49 + 417 mid_for_y_5 + 534 mid_for_y_50 + 568 mid_for_y_51
 + 413 mid_for_y_52 + 462 mid_for_y_53 + 496 mid_for_y_54 + 561 mid_for_y_55
 + 406 mid_for_y_56 + 506 mid_for_y_57 + 536 mid_for_y_58 + 524 mid_for_y_59
 + 439 mid_for_y_6 + 424 mid_for_y_60 + 510 mid_for_y_61 + 530 mid_for_y_62
 + 493 mid_for_y_63 + 589 mid_for_y_64 + 476 mid_for_y_65 + 590 mid_for_y_66
 + 575 mid_for_y_67 + 588 mid_for_y_68 + 543 mid_for_y_69 + 498 mid_for_y_7
 + 467 mid_for_y_8 + 488 mid_for_y_9 + 412 mid_x_0 + 599 mid_x_1
 + 445 mid_x_10 + 468 mid_x_11 + 453 mid_x_12 + 472 mid_x_13 + 492 mid_x_14
 + 518 mid_x_15 + 430 mid_x_16 + 590 mid_x_17 + 541 mid_x_18 + 428 mid_x_19
 + 420 mid_x_2 + 591 mid_x_20 + 598 mid_x_21 + 584 mid_x_22 + 400 mid_x_23
 + 490 mid_x_24 + 506 mid_x_25 + 457 mid_x_26 + 424 mid_x_27 + 580 mid_x_28
 + 494 mid_x_29 + 511 mid_x_3 + 547 mid_x_30 + 481 mid_x_31 + 574 mid_x_32
 + 517 mid_x_33 + 401 mid_x_34 + 547 mid_x_35 + 572 mid_x_36 + 569 mid_x_37
 + 553 mid_x_38 + 451 mid_x_39 + 504 mid_x_4 + 401 mid_x_40 + 570 mid_x_41
 + 405 mid_x_42 + 496 mid_x_43 + 550 mid_x_44 + 570 mid_x_45 + 487 mid_x_46
 + 408 mid_x_47 + 409 mid_x_48 + 532 mid_x_49 + 411 mid_x_5 + 440 mid_x_50
 + 505 mid_x_51 + 423 mid_x_52 + 409 mid_x_53 + 546 mid_x_54 + 422 mid_x_55
 + 554 mid_x_56 + 520 mid_x_57 + 446 mid_x_58 + 488 mid_x_59 + 549 mid_x_6
 + 452 mid_x_60 + 546 mid_x_61 + 483 mid_x_62 + 546 mid_x_63 + 534 mid_x_64
 + 493 mid_x_65 + 556 mid_x_66 + 505 mid_x_67 + 422 mid_x_68 + 464 mid_x_69
 + 402 mid_x_7 + 513 mid_x_8 + 457 mid_x_9
Subject To
_C1: mid_x_0 >= 0
_C10: - mid_x_1 - x_1 <= -727
_C100: mid_for_y_12 >= 0
_C101: mid_for_y_12 - y_12 >= -170
_C102: x_12 <= 1312
_C103: y_12 >= 170
_C104: x_12 >= 0
_C105: mid_x_13 >= 0
_C106: - mid_x_13 - x_13 <= -1090
_C107: mid_x_13 - x_13 >= -1090
_C108: mid_for_y_13 >= 0
_C109: mid_for_y_13 - y_13 >= -10
_C11: mid_x_1 - x_1 >= -727
_C110: x_13 <= 1316
_C111: y_13 >= 10
_C112: x_13 >= 0
_C113: mid_x_14 >= 0
_C114: - mid_x_14 - x_14 <= -1261
_C115: mid_x_14 - x_14 >= -1261
_C116: mid_for_y_14 >= 0
_C117: mid_for_y_14 - y_14 >= -343
_C118: x_14 <= 1320
_C119: y_14 >= 343
_C12: mid_for_y_1 >= 0
_C120: x_14 >= 0
_C121: mid_x_15 >= 0
_C122: - mid_x_15 - x_15 <= -1376
_C123: mid_x_15 - x_15 >= -1376
_C124: mid_for_y_15 >= 0
_C125: mid_for_y_15 - y_15 >= -250
_C126: x_15 <= 1317
_C127: y_15 >= 250
_C128: x_15 >= 0
_C129: mid_x_16 >= 0
_C13: mid_for_y_1 - y_1 >= -100
_C130: - mid_x_16 - x_16 <= -72
_C131: mid_x_16 - x_16 >= -72
_C132: mid_for_y_16 >= 0
_C133: mid_for_y_16 - y_16 >= -33
_C134: x_16 <= 1316
_C135: y_16 >= 33
_C136: x_16 >= 0
_C137: mid_x_17 >= 0
_C138: - mid_x_17 - x_17 <= -459
_C139: mid_x_17 - x_17 >= -459
_C14: x_1 <= 1312
_C140: mid_for_y_17 >= 0
_C141: mid_for_y_17 - y_17 >= -397
_C142: x_17 <= 1316
_C143: y_17 >= 397
_C144: x_17 >= 0
_C145: mid_x_18 >= 0
_C146: - mid_x_18 - x_18 <= -942
_C147: mid_x_18 - x_18 >= -942
_C148: mid_for_y_18 >= 0
_C149: mid_for_y_18 - y_18 >= -205
_C15: y_1 >= 100
_C150: x_18 <= 1320
_C151: y_18 >= 205
_C152: x_18 >= 0
_C153: mid_x_19 >= 0
_C154: - mid_x_19 - x_19 <= -1176
_C155: mid_x_19 - x_19 >= -1176
_C156: mid_for_y_19 >= 0
_C157: mid_for_y_19 - y_19 >= -291
_C158: x_19 <= 1310
_C159: y_19 >= 291
_C16: x_1 >= 0
_C160: x_19 >= 0
_C161: mid_x_20 >= 0
_C162: - mid_x_20 - x_20 <= -760
_C163: mid_x_20 - x_20 >= -760
_C164: mid_for_y_20 >= 0
_C165: mid_for_y_20 - y_20 >= -366
_C166: x_20 <= 1329
_C167: y_20 >= 366
_C168: x_20 >= 0
_C169: mid_x_21 >= 0
_C17: mid_x_2 >= 0
_C170: - mid_x_21 - x_21 <= -1104
_C171: mid_x_21 - x_21 >= -1104
_C172: mid_for_y_21 >= 0
_C173: mid_for_y_21 - y_21 >= -338
_C174: x_21 <= 1325
_C175: y_21 >= 338
_C176: x_21 >= 0
_C177: mid_x_22 >= 0
_C178: - mid_x_22 - x_22 <= -817
_C179: mid_x_22 - x_22 >= -817
_C18: - mid_x_2 - x_2 <= -183
_C180: mid_for_y_22 >= 0
_C181: mid_for_y_22 - y_22 >= -230
_C182: x_22 <= 1330
_C183: y_22 >= 230
_C184: x_22 >= 0
_C185: mid_x_23 >= 0
_C186: - mid_x_23 - x_23 <= -1313
_C187: mid_x_23 - x_23 >= -1313
_C188: mid_for_y_23 >= 0
_C189: mid_for_y_23 - y_23 >= -461
_C19: mid_x_2 - x_2 >= -183
_C190: x_23 <= 1313
_C191: y_23 >= 461
_C192: x_23 >= 0
_C193: mid_x_24 >= 0
_C194: - mid_x_24 - x_24 <= -782
_C195: mid_x_24 - x_24 >= -782
_C196: mid_for_y_24 >= 0
_C197: mid_for_y_24 - y_24 >= -167
_C198: x_24 <= 1318
_C199: y_24 >= 167
_C2: - mid_x_0 - x_0 <= -912
_C20: mid_for_y_2 >= 0
_C200: x_24 >= 0
_C201: mid_x_25 >= 0
_C202: - mid_x_25 - x_25 <= -472
_C203: mid_x_25 - x_25 >= -472
_C204: mid_for_y_25 >= 0
_C205: mid_for_y_25 - y_25 >= -349
_C206: x_25 <= 1325
_C207: y_25 >= 349
_C208: x_25 >= 0
_C209: mid_x_26 >= 0
_C21: mid_for_y_2 - y_2 >= -487
_C210: - mid_x_26 - x_26 <= -1337
_C211: mid_x_26 - x_26 >= -1337
_C212: mid_for_y_26 >= 0
_C213: mid_for_y_26 - y_26 >= -439
_C214: x_26 <= 1316
_C215: y_26 >= 439
_C216: x_26 >= 0
_C217: mid_x_27 >= 0
_C218: - mid_x_27 - x_27 <= -1331
_C219: mid_x_27 - x_27 >= -1331
_C22: x_2 <= 1310
_C220: mid_for_y_27 >= 0
_C221: mid_for_y_27 - y_27 >= -287
_C222: x_27 <= 1312
_C223: y_27 >= 287
_C224: x_27 >= 0
_C225: mid_x_28 >= 0
_C226: - mid_x_28 - x_28 <= -359
_C227: mid_x_28 - x_28 >= -359
_C228: mid_for_y_28 >= 0
_C229: mid_for_y_28 - y_28 >= -79
_C23: y_2 >= 487
_C230: x_28 <= 1328
_C231: y_28 >= 79
_C232: x_28 >= 0
_C233: mid_x_29 >= 0
_C234: - mid_x_29 - x_29 <= -95
_C235: mid_x_29 - x_29 >= -95
_C236: mid_for_y_29 >= 0
_C237: mid_for_y_29 - y_29 >= -441
_C238: x_29 <= 1312
_C239: y_29 >= 441
_C24: x_2 >= 0
_C240: x_29 >= 0
_C241: mid_x_30 >= 0
_C242: - mid_x_30 - x_30 <= -750
_C243: mid_x_30 - x_30 >= -750
_C244: mid_for_y_30 >= 0
_C245: mid_for_y_30 - y_30 >= -308
_C246: x_30 <= 1326
_C247: y_30 >= 308
_C248: x_30 >= 0
_C249: mid_x_31 >= 0
_C25: mid_x_3 >= 0
_C250: - mid_x_31 - x_31 <= -1230
_C251: mid_x_31 - x_31 >= -1230
_C252: mid_for_y_31 >= 0
_C253: mid_for_y_31 - y_31 >= -364
_C254: x_31 <= 1323
_C255: y_31 >= 364
_C256: x_31 >= 0
_C257: mid_x_32 >= 0
_C258: - mid_x_32 - x_32 <= -489
_C259: mid_x_32 - x_32 >= -489
_C26: - mid_x_3 - x_3 <= -972
_C260: mid_for_y_32 >= 0
_C261: mid_for_y_32 - y_32 >= -491
_C262: x_32 <= 1324
_C263: y_32 >= 491
_C264: x_32 >= 0
_C265: mid_x_33 >= 0
_C266: - mid_x_33 - x_33 <= -1379
_C267: mid_x_33 - x_33 >= -1379
_C268: mid_for_y_33 >= 0
_C269: mid_for_y_33 - y_33 >= -185
_C27: mid_x_3 - x_3 >= -972
_C270: x_33 <= 1318
_C271: y_33 >= 185
_C272: x_33 >= 0
_C273: mid_x_34 >= 0
_C274: - mid_x_34 - x_34 <= -576
_C275: mid_x_34 - x_34 >= -576
_C276: mid_for_y_34 >= 0
_C277: mid_for_y_34 - y_34 >= -416
_C278: x_34 <= 1325
_C279: y_34 >= 416
_C28: mid_for_y_3 >= 0
_C280: x_34 >= 0
_C281: mid_x_35 >= 0
_C282: - mid_x_35 - x_35 <= -445
_C283: mid_x_35 - x_35 >= -445
_C284: mid_for_y_35 >= 0
_C285: mid_for_y_35 - y_35 >= -182
_C286: x_35 <= 1317
_C287: y_35 >= 182
_C288: x_35 >= 0
_C289: mid_x_36 >= 0
_C29: mid_for_y_3 - y_3 >= -155
_C290: - mid_x_36 - x_36 <= -404
_C291: mid_x_36 - x_36 >= -404
_C292: mid_for_y_36 >= 0
_C293: mid_for_y_36 - y_36 >= -12
_C294: x_36 <= 1315
_C295: y_36 >= 12
_C296: x_36 >= 0
_C297: mid_x_37 >= 0
_C298: - mid_x_37 - x_37 <= -978
_C299: mid_x_37 - x_37 >= -978
_C3: mid_x_0 - x_0 >= -912
_C30: x_3 <= 1329
_C300: mid_for_y_37 >= 0
_C301: mid_for_y_37 - y_37 >= -333
_C302: x_37 <= 1326
_C303: y_37 >= 333
_C304: x_37 >= 0
_C305: mid_x_38 >= 0
_C306: - mid_x_38 - x_38 <= -857
_C307: mid_x_38 - x_38 >= -857
_C308: mid_for_y_38 >= 0
_C309: mid_for_y_38 - y_38 >= -280
_C31: y_3 >= 155
_C310: x_38 <= 1320
_C311: y_38 >= 280
_C312: x_38 >= 0
_C313: mid_x_39 >= 0
_C314: - mid_x_39 - x_39 <= -1068
_C315: mid_x_39 - x_39 >= -1068
_C316: mid_for_y_39 >= 0
_C317: mid_for_y_39 - y_39 >= -168
_C318: x_39 <= 1330
_C319: y_39 >= 168
_C32: x_3 >= 0
_C320: x_39 >= 0
_C321: mid_x_40 >= 0
_C322: - mid_x_40 - x_40 <= -116
_C323: mid_x_40 - x_40 >= -116
_C324: mid_for_y_40 >= 0
_C325: mid_for_y_40 - y_40 >= -204
_C326: x_40 <= 1318
_C327: y_40 >= 204
_C328: x_40 >= 0
_C329: mid_x_41 >= 0
_C33: mid_x_4 >= 0
_C330: - mid_x_41 - x_41 <= -283
_C331: mid_x_41 - x_41 >= -283
_C332: mid_for_y_41 >= 0
_C333: mid_for_y_41 - y_41 >= -17
_C334: x_41 <= 1321
_C335: y_41 >= 17
_C336: x_41 >= 0
_C337: mid_x_42 >= 0
_C338: - mid_x_42 - x_42 <= -1077
_C339: mid_x_42 - x_42 >= -1077
_C34: - mid_x_4 - x_4 <= -95
_C340: mid_for_y_42 >= 0
_C341: mid_for_y_42 - y_42 >= -380
_C342: x_42 <= 1328
_C343: y_42 >= 380
_C344: x_42 >= 0
_C345: mid_x_43 >= 0
_C346: - mid_x_43 - x_43 <= -508
_C347: mid_x_43 - x_43 >= -508
_C348: mid_for_y_43 >= 0
_C349: mid_for_y_43 - y_43 >= -465
_C35: mid_x_4 - x_4 >= -95
_C350: x_43 <= 1324
_C351: y_43 >= 465
_C352: x_43 >= 0
_C353: mid_x_44 >= 0
_C354: - mid_x_44 - x_44 <= -790
_C355: mid_x_44 - x_44 >= -790
_C356: mid_for_y_44 >= 0
_C357: mid_for_y_44 - y_44 >= -460
_C358: x_44 <= 1327
_C359: y_44 >= 460
_C36: mid_for_y_4 >= 0
_C360: x_44 >= 0
_C361: mid_x_45 >= 0
_C362: - mid_x_45 - x_45 <= -193
_C363: mid_x_45 - x_45 >= -193
_C364: mid_for_y_45 >= 0
_C365: mid_for_y_45 - y_45 >= -264
_C366: x_45 <= 1329
_C367: y_45 >= 264
_C368: x_45 >= 0
_C369: mid_x_46 >= 0
_C37: mid_for_y_4 - y_4 >= -316
_C370: - mid_x_46 - x_46 <= -1039
_C371: mid_x_46 - x_46 >= -1039
_C372: mid_for_y_46 >= 0
_C373: mid_for_y_46 - y_46 >= -286
_C374: x_46 <= 1328
_C375: y_46 >= 286
_C376: x_46 >= 0
_C377: mid_x_47 >= 0
_C378: - mid_x_47 - x_47 <= -987
_C379: mid_x_47 - x_47 >= -987
_C38: x_4 <= 1322
_C380: mid_for_y_47 >= 0
_C381: mid_for_y_47 - y_47 >= -316
_C382: x_47 <= 1316
_C383: y_47 >= 316
_C384: x_47 >= 0
_C385: mid_x_48 >= 0
_C386: - mid_x_48 - x_48 <= -371
_C387: mid_x_48 - x_48 >= -371
_C388: mid_for_y_48 >= 0
_C389: mid_for_y_48 - y_48 >= -494
_C39: y_4 >= 316
_C390: x_48 <= 1312
_C391: y_48 >= 494
_C392: x_48 >= 0
_C393: mid_x_49 >= 0
_C394: - mid_x_49 - x_49 <= -1051
_C395: mid_x_49 - x_49 >= -1051
_C396: mid_for_y_49 >= 0
_C397: mid_for_y_49 - y_49 >= -443
_C398: x_49 <= 1314
_C399: y_49 >= 443
_C4: mid_for_y_0 >= 0
_C40: x_4 >= 0
_C400: x_49 >= 0
_C401: mid_x_50 >= 0
_C402: - mid_x_50 - x_50 <= -858
_C403: mid_x_50 - x_50 >= -858
_C404: mid_for_y_50 >= 0
_C405: mid_for_y_50 - y_50 >= -315
_C406: x_50 <= 1313
_C407: y_50 >= 315
_C408: x_50 >= 0
_C409: mid_x_51 >= 0
_C41: mid_x_5 >= 0
_C410: - mid_x_51 - x_51 <= -663
_C411: mid_x_51 - x_51 >= -663
_C412: mid_for_y_51 >= 0
_C413: mid_for_y_51 - y_51 >= -259
_C414: x_51 <= 1319
_C415: y_51 >= 259
_C416: x_51 >= 0
_C417: mid_x_52 >= 0
_C418: - mid_x_52 - x_52 <= 0
_C419: mid_x_52 - x_52 >= 0
_C42: - mid_x_5 - x_5 <= -779
_C420: mid_for_y_52 >= 0
_C421: mid_for_y_52 - y_52 >= -339
_C422: x_52 <= 1314
_C423: y_52 >= 339
_C424: x_52 >= 0
_C425: mid_x_53 >= 0
_C426: - mid_x_53 - x_53 <= -259
_C427: mid_x_53 - x_53 >= -259
_C428: mid_for_y_53 >= 0
_C429: mid_for_y_53 - y_53 >= -338
_C43: mid_x_5 - x_5 >= -779
_C430: x_53 <= 1317
_C431: y_53 >= 338
_C432: x_53 >= 0
_C433: mid_x_54 >= 0
_C434: - mid_x_54 - x_54 <= -1387
_C435: mid_x_54 - x_54 >= -1387
_C436: mid_for_y_54 >= 0
_C437: mid_for_y_54 - y_54 >= -265
_C438: x_54 <= 1321
_C439: y_54 >= 265
_C44: mid_for_y_5 >= 0
_C440: x_54 >= 0
_C441: mid_x_55 >= 0
_C442: - mid_x_55 - x_55 <= -20
_C443: mid_x_55 - x_55 >= -20
_C444: mid_for_y_55 >= 0
_C445: mid_for_y_55 - y_55 >= -340
_C446: x_55 <= 1325
_C447: y_55 >= 340
_C448: x_55 >= 0
_C449: mid_x_56 >= 0
_C45: mid_for_y_5 - y_5 >= -366
_C450: - mid_x_56 - x_56 <= -1078
_C451: mid_x_56 - x_56 >= -1078
_C452: mid_for_y_56 >= 0
_C453: mid_for_y_56 - y_56 >= -270
_C454: x_56 <= 1324
_C455: y_56 >= 270
_C456: x_56 >= 0
_C457: mid_x_57 >= 0
_C458: - mid_x_57 - x_57 <= -979
_C459: mid_x_57 - x_57 >= -979
_C46: x_5 <= 1324
_C460: mid_for_y_57 >= 0
_C461: mid_for_y_57 - y_57 >= -112
_C462: x_57 <= 1323
_C463: y_57 >= 112
_C464: x_57 >= 0
_C465: mid_x_58 >= 0
_C466: - mid_x_58 - x_58 <= -887
_C467: mid_x_58 - x_58 >= -887
_C468: mid_for_y_58 >= 0
_C469: mid_for_y_58 - y_58 >= -331
_C47: y_5 >= 366
_C470: x_58 <= 1318
_C471: y_58 >= 331
_C472: x_58 >= 0
_C473: mid_x_59 >= 0
_C474: - mid_x_59 - x_59 <= -1065
_C475: mid_x_59 - x_59 >= -1065
_C476: mid_for_y_59 >= 0
_C477: mid_for_y_59 - y_59 >= -68
_C478: x_59 <= 1317
_C479: y_59 >= 68
_C48: x_5 >= 0
_C480: x_59 >= 0
_C481: mid_x_60 >= 0
_C482: - mid_x_60 - x_60 <= -1082
_C483: mid_x_60 - x_60 >= -1082
_C484: mid_for_y_60 >= 0
_C485: mid_for_y_60 - y_60 >= -221
_C486: x_60 <= 1320
_C487: y_60 >= 221
_C488: x_60 >= 0
_C489: mid_x_61 >= 0
_C49: mid_x_6 >= 0
_C490: - mid_x_61 - x_61 <= -521
_C491: mid_x_61 - x_61 >= -521
_C492: mid_for_y_61 >= 0
_C493: mid_for_y_61 - y_61 >= -383
_C494: x_61 <= 1322
_C495: y_61 >= 383
_C496: x_61 >= 0
_C497: mid_x_62 >= 0
_C498: - mid_x_62 - x_62 <= -664
_C499: mid_x_62 - x_62 >= -664
_C5: mid_for_y_0 - y_0 >= -419
_C50: - mid_x_6 - x_6 <= -2
_C500: mid_for_y_62 >= 0
_C501: mid_for_y_62 - y_62 >= -307
_C502: x_62 <= 1324
_C503: y_62 >= 307
_C504: x_62 >= 0
_C505: mid_x_63 >= 0
_C506: - mid_x_63 - x_63 <= -572
_C507: mid_x_63 - x_63 >= -572
_C508: mid_for_y_63 >= 0
_C509: mid_for_y_63 - y_63 >= -353
_C51: mid_x_6 - x_6 >= -2
_C510: x_63 <= 1317
_C511: y_63 >= 353
_C512: x_63 >= 0
_C513: mid_x_64 >= 0
_C514: - mid_x_64 - x_64 <= -288
_C515: mid_x_64 - x_64 >= -288
_C516: mid_for_y_64 >= 0
_C517: mid_for_y_64 - y_64 >= -384
_C518: x_64 <= 1325
_C519: y_64 >= 384
_C52: mid_for_y_6 >= 0
_C520: x_64 >= 0
_C521: mid_x_65 >= 0
_C522: - mid_x_65 - x_65 <= -1272
_C523: mid_x_65 - x_65 >= -1272
_C524: mid_for_y_65 >= 0
_C525: mid_for_y_65 - y_65 >= -486
_C526: x_65 <= 1319
_C527: y_65 >= 486
_C528: x_65 >= 0
_C529: mid_x_66 >= 0
_C53: mid_for_y_6 - y_6 >= -417
_C530: - mid_x_66 - x_66 <= -1294
_C531: mid_x_66 - x_66 >= -1294
_C532: mid_for_y_66 >= 0
_C533: mid_for_y_66 - y_66 >= -125
_C534: x_66 <= 1327
_C535: y_66 >= 125
_C536: x_66 >= 0
_C537: mid_x_67 >= 0
_C538: - mid_x_67 - x_67 <= -1156
_C539: mid_x_67 - x_67 >= -1156
_C54: x_6 <= 1316
_C540: mid_for_y_67 >= 0
_C541: mid_for_y_67 - y_67 >= -18
_C542: x_67 <= 1324
_C543: y_67 >= 18
_C544: x_67 >= 0
_C545: mid_x_68 >= 0
_C546: - mid_x_68 - x_68 <= -775
_C547: mid_x_68 - x_68 >= -775
_C548: mid_for_y_68 >= 0
_C549: mid_for_y_68 - y_68 >= -197
_C55: y_6 >= 417
_C550: x_68 <= 1323
_C551: y_68 >= 197
_C552: x_68 >= 0
_C553: mid_x_69 >= 0
_C554: - mid_x_69 - x_69 <= -119
_C555: mid_x_69 - x_69 >= -119
_C556: mid_for_y_69 >= 0
_C557: mid_for_y_69 - y_69 >= -399
_C558: x_69 <= 1327
_C559: y_69 >= 399
_C56: x_6 >= 0
_C560: x_69 >= 0
_C561: - x_4 + x_9 + 100000000 z_x_(9,_4) <= 99999921
_C562: x_4 - x_9 + 100000000 z_x_(4,_9) <= 99999922
_C563: - y_4 + y_9 + 100000000 z_y_(9,_4) <= 99999972
_C564: y_4 - y_9 + 100000000 z_y_(4,_9) <= 99999979
_C565: z_x_(4,_9) + z_x_(9,_4) + z_y_(4,_9) + z_y_(9,_4) >= 1
_C566: x_20 - x_5 + 100000000 z_x_(20,_5) <= 99999929
_C567: - x_20 + x_5 + 100000000 z_x_(5,_20) <= 99999924
_C568: y_20 - y_5 + 100000000 z_y_(20,_5) <= 99999979
_C569: - y_20 + y_5 + 100000000 z_y_(5,_20) <= 99999981
_C57: mid_x_7 >= 0
_C570: z_x_(20,_5) + z_x_(5,_20) + z_y_(20,_5) + z_y_(5,_20) >= 1
_C571: - x_12 + x_24 + 100000000 z_x_(24,_12) <= 99999918
_C572: x_12 - x_24 + 100000000 z_x_(12,_24) <= 99999912
_C573: - y_12 + y_24 + 100000000 z_y_(24,_12) <= 99999980
_C574: y_12 - y_24 + 100000000 z_y_(12,_24) <= 99999981
_C575: z_x_(12,_24) + z_x_(24,_12) + z_y_(12,_24) + z_y_(24,_12) >= 1
_C576: - x_23 + x_26 + 100000000 z_x_(26,_23) <= 99999916
_C577: x_23 - x_26 + 100000000 z_x_(23,_26) <= 99999913
_C578: - y_23 + y_26 + 100000000 z_y_(26,_23) <= 99999972
_C579: y_23 - y_26 + 100000000 z_y_(23,_26) <= 99999976
_C58: - mid_x_7 - x_7 <= -1199
_C580: z_x_(23,_26) + z_x_(26,_23) + z_y_(23,_26) + z_y_(26,_23) >= 1
_C581: - x_14 + x_31 + 100000000 z_x_(31,_14) <= 99999923
_C582: x_14 - x_31 + 100000000 z_x_(14,_31) <= 99999920
_C583: - y_14 + y_31 + 100000000 z_y_(31,_14) <= 99999975
_C584: y_14 - y_31 + 100000000 z_y_(14,_31) <= 99999978
_C585: z_x_(14,_31) + z_x_(31,_14) + z_y_(14,_31) + z_y_(31,_14) >= 1
_C586: - x_11 + x_44 + 100000000 z_x_(44,_11) <= 99999927
_C587: x_11 - x_44 + 100000000 z_x_(11,_44) <= 99999926
_C588: - y_11 + y_44 + 100000000 z_y_(44,_11) <= 99999976
_C589: y_11 - y_44 + 100000000 z_y_(11,_44) <= 99999975
_C59: mid_x_7 - x_7 >= -1199
_C590: z_x_(11,_44) + z_x_(44,_11) + z_y_(11,_44) + z_y_(44,_11) >= 1
_C591: - x_37 + x_47 + 100000000 z_x_(47,_37) <= 99999916
_C592: x_37 - x_47 + 100000000 z_x_(37,_47) <= 99999926
_C593: - y_37 + y_47 + 100000000 z_y_(47,_37) <= 99999975
_C594: y_37 - y_47 + 100000000 z_y_(37,_47) <= 99999978
_C595: z_x_(37,_47) + z_x_(47,_37) + z_y_(37,_47) + z_y_(47,_37) >= 1
_C596: - x_15 + x_54 + 100000000 z_x_(54,_15) <= 99999921
_C597: x_15 - x_54 + 100000000 z_x_(15,_54) <= 99999917
_C598: - y_15 + y_54 + 100000000 z_y_(54,_15) <= 99999972
_C599: y_15 - y_54 + 100000000 z_y_(15,_54) <= 99999978
_C6: x_0 <= 1316
_C60: mid_for_y_7 >= 0
_C600: z_x_(15,_54) + z_x_(54,_15) + z_y_(15,_54) + z_y_(54,_15) >= 1
_C601: - x_27 + x_54 + 100000000 z_x_(54,_27) <= 99999921
_C602: x_27 - x_54 + 100000000 z_x_(27,_54) <= 99999912
_C603: - y_27 + y_54 + 100000000 z_y_(54,_27) <= 99999972
_C604: y_27 - y_54 + 100000000 z_y_(27,_54) <= 99999971
_C605: z_x_(27,_54) + z_x_(54,_27) + z_y_(27,_54) + z_y_(54,_27) >= 1
_C606: - x_52 + x_55 + 100000000 z_x_(55,_52) <= 99999925
_C607: x_52 - x_55 + 100000000 z_x_(52,_55) <= 99999914
_C608: - y_52 + y_55 + 100000000 z_y_(55,_52) <= 99999979
_C609: y_52 - y_55 + 100000000 z_y_(52,_55) <= 99999979
_C61: mid_for_y_7 - y_7 >= -108
_C610: z_x_(52,_55) + z_x_(55,_52) + z_y_(52,_55) + z_y_(55,_52) >= 1
_C611: - x_46 + x_56 + 100000000 z_x_(56,_46) <= 99999924
_C612: x_46 - x_56 + 100000000 z_x_(46,_56) <= 99999928
_C613: - y_46 + y_56 + 100000000 z_y_(56,_46) <= 99999981
_C614: y_46 - y_56 + 100000000 z_y_(46,_56) <= 99999974
_C615: z_x_(46,_56) + z_x_(56,_46) + z_y_(46,_56) + z_y_(56,_46) >= 1
_C616: - x_50 + x_58 + 100000000 z_x_(58,_50) <= 99999918
_C617: x_50 - x_58 + 100000000 z_x_(50,_58) <= 99999913
_C618: - y_50 + y_58 + 100000000 z_y_(58,_50) <= 99999973
_C619: y_50 - y_58 + 100000000 z_y_(50,_58) <= 99999973
_C62: x_7 <= 1316
_C620: z_x_(50,_58) + z_x_(58,_50) + z_y_(50,_58) + z_y_(58,_50) >= 1
_C621: - x_17 + x_61 + 100000000 z_x_(61,_17) <= 99999922
_C622: x_17 - x_61 + 100000000 z_x_(17,_61) <= 99999916
_C623: - y_17 + y_61 + 100000000 z_y_(61,_17) <= 99999981
_C624: y_17 - y_61 + 100000000 z_y_(17,_61) <= 99999971
_C625: z_x_(17,_61) + z_x_(61,_17) + z_y_(17,_61) + z_y_(61,_17) >= 1
_C626: - x_10 + x_66 + 100000000 z_x_(66,_10) <= 99999927
_C627: x_10 - x_66 + 100000000 z_x_(10,_66) <= 99999911
_C628: - y_10 + y_66 + 100000000 z_y_(66,_10) <= 99999981
_C629: y_10 - y_66 + 100000000 z_y_(10,_66) <= 99999981
_C63: y_7 >= 108
_C630: z_x_(10,_66) + z_x_(66,_10) + z_y_(10,_66) + z_y_(66,_10) >= 1
_C631: - x_13 + x_67 + 100000000 z_x_(67,_13) <= 99999924
_C632: x_13 - x_67 + 100000000 z_x_(13,_67) <= 99999916
_C633: - y_13 + y_67 + 100000000 z_y_(67,_13) <= 99999977
_C634: y_13 - y_67 + 100000000 z_y_(13,_67) <= 99999973
_C635: z_x_(13,_67) + z_x_(67,_13) + z_y_(13,_67) + z_y_(67,_13) >= 1
_C636: - x_23 + x_65 + 100000000 z_x_(65,_23) <= 99999919
_C637: x_23 - x_65 + 100000000 z_x_(23,_65) <= 99999913
_C638: - y_23 + y_65 + 100000000 z_y_(65,_23) <= 99999971
_C639: y_23 - y_65 + 100000000 z_y_(23,_65) <= 99999976
_C64: x_7 >= 0
_C640: z_x_(23,_65) + z_x_(65,_23) + z_y_(23,_65) + z_y_(65,_23) >= 1
_C641: - x_12 + x_68 + 100000000 z_x_(68,_12) <= 99999923
_C642: x_12 - x_68 + 100000000 z_x_(12,_68) <= 99999912
_C643: - y_12 + y_68 + 100000000 z_y_(68,_12) <= 99999975
_C644: y_12 - y_68 + 100000000 z_y_(12,_68) <= 99999981
_C645: z_x_(12,_68) + z_x_(68,_12) + z_y_(12,_68) + z_y_(68,_12) >= 1
_C646: - x_24 + x_68 + 100000000 z_x_(68,_24) <= 99999923
_C647: x_24 - x_68 + 100000000 z_x_(24,_68) <= 99999918
_C648: - y_24 + y_68 + 100000000 z_y_(68,_24) <= 99999975
_C649: y_24 - y_68 + 100000000 z_y_(24,_68) <= 99999980
_C65: mid_x_8 >= 0
_C650: z_x_(24,_68) + z_x_(68,_24) + z_y_(24,_68) + z_y_(68,_24) >= 1
_C66: - mid_x_8 - x_8 <= -1204
_C67: mid_x_8 - x_8 >= -1204
_C68: mid_for_y_8 >= 0
_C69: mid_for_y_8 - y_8 >= -248
_C7: y_0 >= 419
_C70: x_8 <= 1326
_C71: y_8 >= 248
_C72: x_8 >= 0
_C73: mid_x_9 >= 0
_C74: - mid_x_9 - x_9 <= -168
_C75: mid_x_9 - x_9 >= -168
_C76: mid_for_y_9 >= 0
_C77: mid_for_y_9 - y_9 >= -308
_C78: x_9 <= 1321
_C79: y_9 >= 308
_C8: x_0 >= 0
_C80: x_9 >= 0
_C81: mid_x_10 >= 0
_C82: - mid_x_10 - x_10 <= -1366
_C83: mid_x_10 - x_10 >= -1366
_C84: mid_for_y_10 >= 0
_C85: mid_for_y_10 - y_10 >= -130
_C86: x_10 <= 1311
_C87: y_10 >= 130
_C88: x_10 >= 0
_C89: mid_x_11 >= 0
_C9: mid_x_1 >= 0
_C90: - mid_x_11 - x_11 <= -845
_C91: mid_x_11 - x_11 >= -845
_C92: mid_for_y_11 >= 0
_C93: mid_for_y_11 - y_11 >= -466
_C94: x_11 <= 1326
_C95: y_11 >= 466
_C96: x_11 >= 0
_C97: mid_x_12 >= 0
_C98: - mid_x_12 - x_12 <= -724
_C99: mid_x_12 - x_12 >= -724
Binaries
z_x_(10,_66)
z_x_(11,_44)
z_x_(12,_24)
z_x_(12,_68)
z_x_(13,_67)
z_x_(14,_31)
z_x_(15,_54)
z_x_(17,_61)
z_x_(20,_5)
z_x_(23,_26)
z_x_(23,_65)
z_x_(24,_12)
z_x_(24,_68)
z_x_(26,_23)
z_x_(27,_54)
z_x_(31,_14)
z_x_(37,_47)
z_x_(4,_9)
z_x_(44,_11)
z_x_(46,_56)
z_x_(47,_37)
z_x_(5,_20)
z_x_(50,_58)
z_x_(52,_55)
z_x_(54,_15)
z_x_(54,_27)
z_x_(55,_52)
z_x_(56,_46)
z_x_(58,_50)
z_x_(61,_17)
z_x_(65,_23)
z_x_(66,_10)
z_x_(67,_13)
z_x_(68,_12)
z_x_(68,_24)
z_x_(9,_4)
z_y_(10,_66)
z_y_(11,_44)
z_y_(12,_24)
z_y_(12,_68)
z_y_(13,_67)
z_y_(14,_31)
z_y_(15,_54)
z_y_(17,_61)
z_y_(20,_5)
z_y_(23,_26)
z_y_(23,_65)
z_y_(24,_12)
z_y_(24,_68)
z_y_(26,_23)
z_y_(27,_54)
z_y_(31,_14)
z_y_(37,_47)
z_y_(4,_9)
z_y_(44,_11)
z_y_(46,_56)
z_y_(47,_37)
z_y_(5,_20)
z_y_(50,_58)
z_y_(52,_55)
z_y_(54,_15)
z_y_(54,_27)
z_y_(55,_52)
z_y_(56,_46)
z_y_(58,_50)
z_y_(61,_17)
z_y_(65,_23)
z_y_(66,_10)
z_y_(67,_13)
z_y_(68,_12)
z_y_(68,_24)
z_y_(9,_4)
End
